0 40 
1 41 
2 42 
3 41 
4 40 
5 40 
6 41 
7 42 
8 39 
9 40 
10 43 
11 44 
12 43 
13 41 
14 39 
15 37 
16 34 
17 31 
18 28 
19 29 
20 30 
21 29 
22 28 
23 25 
24 24 
25 24 
26 19 
27 16 
28 11 
29 13 
30 5 
31 5 
32 8 
33 7 
34 5 
35 3 
36 2 
37 0 
38 0 

